GLPSOL--GLPK LP/MIP Solver 5.0
Parameter(s) specified in the command line:
 --lp ../modeles/15_159.lp --log 15_159.log
Reading problem data from '../modeles/15_159.lp'...
2446 rows, 4800 columns, 16770 non-zeros
2385 integer variables, all of which are binary
7267 lines were read
GLPK Integer Optimizer 5.0
2446 rows, 4800 columns, 16770 non-zeros
2385 integer variables, all of which are binary
Preprocessing...
2370 constraint coefficient(s) were reduced
2446 rows, 4785 columns, 16755 non-zeros
2385 integer variables, all of which are binary
Scaling...
 A: min|aij| =  1.582e-04  max|aij| =  4.000e+00  ratio =  2.528e+04
GM: min|aij| =  7.931e-02  max|aij| =  1.261e+01  ratio =  1.590e+02
EQ: min|aij| =  6.289e-03  max|aij| =  1.000e+00  ratio =  1.590e+02
2N: min|aij| =  5.063e-03  max|aij| =  1.727e+00  ratio =  3.410e+02
Constructing initial basis...
Size of triangular part is 2446
Solving LP relaxation...
GLPK Simplex Optimizer 5.0
2446 rows, 4785 columns, 16755 non-zeros
      0: obj =   3.000000000e+01 inf =   7.450e+01 (31)
    194: obj =   4.988330696e-01 inf =   0.000e+00 (0)
*   700: obj =  -3.869575472e+00 inf =   1.439e-14 (0)
OPTIMAL LP SOLUTION FOUND
Integer optimization begins...
Long-step dual simplex will be used
+   700: mip =     not found yet >=              -inf        (1; 0)
+   823: >>>>>  -3.869575472e+00 >=  -3.869575472e+00   0.0% (118; 0)
+   823: mip =  -3.869575472e+00 >=     tree is empty   0.0% (0; 235)
INTEGER OPTIMAL SOLUTION FOUND
Time used:   0.6 secs
Memory used: 7.0 Mb (7319797 bytes)
